
--- Job fuel.gms Start 06/07/21 18:32:28 35.1.0 r82a9585 DEX-DEG x86 64bit/Mac OS X
--- Applying:
    /Library/Frameworks/GAMS.framework/Versions/35/Resources/gmsprmun.txt
--- GAMS Parameters defined
    Input /Users/joseangelvelasco/Documents/GAMS/Studio/fuel/fuel.gms
    PageSize 0
    ScrDir /Users/joseangelvelasco/Documents/GAMS/Studio/fuel/225a/
    SysDir /Library/Frameworks/GAMS.framework/Versions/35/Resources/
    LogOption 3
    ErrMsg 1
    ErrorLog 99
    IDE 1
    LstTitleLeftAligned 1
Licensee: GAMS Demo license for Jose Angel Rodriguez     G210527|0002CO-GEN
          UC3M, Spain                                              DL042150
          /Library/Frameworks/GAMS.framework/Versions/35/Resources/gamslice.txt
          100328928@alumnos.uc3m.es, Jose Angel Rodriguez                  
          Demo license for demonstration and instructional purposes only
GAMS 35.1.0   Copyright (C) 1987-2021 GAMS Development. All rights reserved
--- Starting compilation
--- fuel.gms(92) 3 Mb
--- Starting execution: elapsed 0:00:00.005
--- fuel.gms(85) 4 Mb
--- Generating MINLP model ucom
--- fuel.gms(92) 6 Mb
---   31 rows  31 columns  78 non-zeroes
---   81 nl-code  12 nl-non-zeroes
---   6 discrete-columns
--- fuel.gms(92) 4 Mb
--- Executing XPRESS (Solvelink=2): elapsed 0:00:00.012

FICO-Xpress      35.1.0 r82a9585 Released Apr 29, 2021 DEG x86 64bit/Mac OS X 

*** This solver runs with a demo license. No commercial use.
Xpress Optimizer 36.01
Xpress Solver 64bit v8.10.1 Sep  4 2020
(c) Copyright Fair Isaac Corporation 1983-2020. All rights reserved
Licensed for use by: GAMS Development Corp. for GAMS

 
Reading Problem ucom
Problem Statistics
          30 (      0 spare) rows
          30 (      0 spare) structural columns
          71 (      0 spare) non-zero elements
           6 quadratic elements in objective
           6 quadratic elements in 6 quadratic constraints
Global Statistics
           6 entities        0 sets        0 set members
Original problem size
   linear:    30 rows, 31 columns, 71 linear coefficients
   quadratic: 6 in obj, 6 rows, 6 in rows
Nonlinear presolve
   converted 6 quadratic matrix to SLP
   bound tightening reduced 26 bounds
Presolved problem size
   linear:    30 rows, 31 columns, 71 linear coefficients
   quadratic: 6 in obj, 0 rows, 0 in rows
   nonlinear: 6 coefficients, 30 tokens
Problem is nonlinear presolved
FICO Xpress v8.10.1, Hyper, solve started 18:32:28, Jun 7, 2021
Maximum expanded nl-formula size: 5  (row 'R25')
Total tokens: 30
Quadratic formula size: 6
  Jacobian: symbolic differentiation
           6 base AD formula, 6 average complexity
           6 in the Jacobian, 7 average complexity
Initial point objective:  1836.0150
Absolute / relative validation:            .000  /  1999.000
Minimizing problem using Xpress-SLP
Xpress-SLP Augmentation Statistics:
  Columns:
           6 delta vectors
          12 penalty error vectors (6 positive, 6 negative)
  Rows:
           6 nonlinear constraints
           6 update rows
           1 penalty error rows
  Coefficients:
          24 non-constant coefficients

 It LP    NetObj   ValObj ErrorSum ErrorCost Validate   KKT Unconv  Ext Action T
  1 O  17409.612           7.4E-06  1.6E-04                      6    0        0
  2 O  16361.640           1.2E-04  1.5E-03                      6    0        0
  3 O  16010.800           4.2E-05  5.3E-04                      6    0        0
  4 O  15953.994           6.7E-04  8.4E-03                      6    0        0
  5 O  16050.137           1.6E-05  2.0E-04                      6    0        0
  6 O  16132.553               .00  2.4E-05                      6    0        0
  7 O  15820.602               .00  4.8E-05                      6    0        0
  8 O  15848.788               .00  5.0E-05                      6    0        0
  9 O  17881.724           2.5E-05  3.2E-04                      6    0        0
 10 O  17892.059           6.7E-05  8.4E-04                      6    0        0
 11 O  18127.454           2.3E-05  2.9E-04                      6    0        0
 12 O  18174.115               .00  4.1E-05                      6    0        0
 13 O  18205.220               .00  3.5E-05                      6    0        0
 14 O  18225.199           7.8E-06  1.6E-04                      6    0        0
 15 O  18233.457           3.7E-04  4.6E-03                      6    0        0
 16 O  18233.784           1.4E-03      .01                      6    0        0
 17 O  18234.676           3.5E-04  4.4E-03                      4    0 *      0
 18 O  18234.720           7.0E-05  8.7E-04                      6    0        0
 19 O  18234.799  18234.7  3.0E-04  3.8E-03  2.8E-05             0    0 V*     0
 20 O  18234.846  18234.8  3.9E-04  4.9E-03      .00  1.5E-04    0    0 K*     0
 21 O  18234.913  18234.9  8.9E-04      .01      .00  1.6E-04    0    0        0
Best solution achieved at iteration 20
Final linearization will not match solution returned
  Restored solution with objective:  18234.846

Xpress-SLP stopped after 21 iterations. 0 unconverged items
Problem solved using Xpress-NLP SLP
Converged on objective function with some variables converged on extended criteria only. 0 unconverged items
No unconverged values in active constraints
FICO Xpress v8.10.1, Hyper, solve started 18:32:28, Jun 7, 2021
Heap usage: 2374KB (peak 2378KB, 1193KB system)
Minimizing MIQP ucom
Original problem has:
        37 rows           50 cols          120 elements         6 globals
         6 qobjelem

Coefficient range                    original                 solved        
  Coefficients   [min,max] : [ 6.25e-02,  5.03e+02] / [ 3.91e-03,  1.96e+00]
  RHS and bounds [min,max] : [ 2.37e-01,  4.00e+03] / [ 2.37e-01,  4.00e+03]
  Objective      [min,max] : [ 6.00e+00,  2.00e+02] / [ 6.00e+00,  2.00e+02]
  Quadratic      [min,max] : [ 5.00e-03,  5.00e-03] / [ 5.00e-03,  5.00e-03]

Will try to keep branch and bound tree memory usage below 15.1GB
 *** Search unfinished ***    Time:     0 Nodes:          0
  Solution time / primaldual integral :         0s/ 100.000000%
  Number of solutions found / nodes   :         0 /         0

Starting nonlinear heuristics
Heuristics stopped

Invoking SLP global search
MIP strategy: SLP within MIP
   Node  BestSoln   BoundEstim Sols Active Depth   Gap     GInf    SLPIts  Time
      1             18234.846   0      2     1                6      437      0
      2             18234.846   0      2     2                5      475      0
      3             18234.846   0      2     3                4      513      0
      4             18234.846   0      2     4                3      547      0
      5             18234.846   0      5     3                4      587      0
      6             18234.846   0      5     4                3      623      0
k     6  19302.469  18234.846   1      0     0     5.53%      0      659      0
      7  19302.469  18234.846   1      5     5     5.53%      2      659      0
      8  19302.469  18234.846   1      8     4     5.53%      3      695      0
      9  19302.469  18234.846   1      8     5     5.53%      2      731      0
     10  19302.469  18234.846   1      8     6     5.53%      2      733      0
     20  19302.469  18234.846   1      7     6     5.53%      2     1228      0
k    29  19302.395  18234.846   2      0     0     5.53%      0     1580      1
     31  19302.395  18234.846   2      1     7     5.53%      1     1582      1
Tree search: completed

Integer solution statistics:
  NLP heuristics: 0
  MIP heuristics: 2
  Tree search   : 0
Heap usage: 3350KB (peak 3987KB, 1134KB system)
Final MINLP objective (feas. solution)  : 1.930252749540378e+04
  Max validation error      (abs/rel) :  1.29E-05 /  1.29E-05
  Observed primal integral :   49.328%
  Total time :                 1.264s 
*** Search completed ***

--- Reading solution for model ucom
***
*** Solver did not provide marginals for model ucom
***
*** Status: Normal completion
--- Job fuel.gms Stop 06/07/21 18:32:29 elapsed 0:00:01.333
